/* Objective function */
min: +C1 +C2 +C3 +C4 +C5 +C6 +C7 +C8 +C9 +C10 +C11 +C12 +C13 +C14 +C15 +C16 +C17 +C18 +C19 +C20;

/* Constraints */
+C21 +C22 +C23 +C24 +C25 +C26 +C27 +C28 +C29 +C30 +C31 +C32 +C33 +C34 +C35 +C36 +C37 +C38 +C39 +C40 = 1;
+C41 +C42 +C43 +C44 +C45 +C46 +C47 +C48 +C49 +C50 +C51 +C52 +C53 +C54 +C55 +C56 +C57 +C58 +C59 +C60 = 1;
+C61 +C62 +C63 +C64 +C65 +C66 +C67 +C68 +C69 +C70 +C71 +C72 +C73 +C74 +C75 +C76 +C77 +C78 +C79 +C80 = 1;
+C81 +C82 +C83 +C84 +C85 +C86 +C87 +C88 +C89 +C90 +C91 +C92 +C93 +C94 +C95 +C96 +C97 +C98 +C99 +C100 = 1;
+C101 +C102 +C103 +C104 +C105 +C106 +C107 +C108 +C109 +C110 +C111 +C112 +C113 +C114 +C115 +C116 +C117
 +C118 +C119 +C120 = 1;
+C121 +C122 +C123 +C124 +C125 +C126 +C127 +C128 +C129 +C130 +C131 +C132 +C133 +C134 +C135 +C136 +C137
 +C138 +C139 +C140 = 1;
+C141 +C142 +C143 +C144 +C145 +C146 +C147 +C148 +C149 +C150 +C151 +C152 +C153 +C154 +C155 +C156 +C157
 +C158 +C159 +C160 = 1;
+C161 +C162 +C163 +C164 +C165 +C166 +C167 +C168 +C169 +C170 +C171 +C172 +C173 +C174 +C175 +C176 +C177
 +C178 +C179 +C180 = 1;
+C181 +C182 +C183 +C184 +C185 +C186 +C187 +C188 +C189 +C190 +C191 +C192 +C193 +C194 +C195 +C196 +C197
 +C198 +C199 +C200 = 1;
+C201 +C202 +C203 +C204 +C205 +C206 +C207 +C208 +C209 +C210 +C211 +C212 +C213 +C214 +C215 +C216 +C217
 +C218 +C219 +C220 = 1;
+C221 +C222 +C223 +C224 +C225 +C226 +C227 +C228 +C229 +C230 +C231 +C232 +C233 +C234 +C235 +C236 +C237
 +C238 +C239 +C240 = 1;
+C241 +C242 +C243 +C244 +C245 +C246 +C247 +C248 +C249 +C250 +C251 +C252 +C253 +C254 +C255 +C256 +C257
 +C258 +C259 +C260 = 1;
+C261 +C262 +C263 +C264 +C265 +C266 +C267 +C268 +C269 +C270 +C271 +C272 +C273 +C274 +C275 +C276 +C277
 +C278 +C279 +C280 = 1;
+C281 +C282 +C283 +C284 +C285 +C286 +C287 +C288 +C289 +C290 +C291 +C292 +C293 +C294 +C295 +C296 +C297
 +C298 +C299 +C300 = 1;
+C301 +C302 +C303 +C304 +C305 +C306 +C307 +C308 +C309 +C310 +C311 +C312 +C313 +C314 +C315 +C316 +C317
 +C318 +C319 +C320 = 1;
+C321 +C322 +C323 +C324 +C325 +C326 +C327 +C328 +C329 +C330 +C331 +C332 +C333 +C334 +C335 +C336 +C337
 +C338 +C339 +C340 = 1;
+C341 +C342 +C343 +C344 +C345 +C346 +C347 +C348 +C349 +C350 +C351 +C352 +C353 +C354 +C355 +C356 +C357
 +C358 +C359 +C360 = 1;
+C361 +C362 +C363 +C364 +C365 +C366 +C367 +C368 +C369 +C370 +C371 +C372 +C373 +C374 +C375 +C376 +C377
 +C378 +C379 +C380 = 1;
+C381 +C382 +C383 +C384 +C385 +C386 +C387 +C388 +C389 +C390 +C391 +C392 +C393 +C394 +C395 +C396 +C397
 +C398 +C399 +C400 = 1;
+C401 +C402 +C403 +C404 +C405 +C406 +C407 +C408 +C409 +C410 +C411 +C412 +C413 +C414 +C415 +C416 +C417
 +C418 +C419 +C420 = 1;
-10000000 C1 +C21 +C41 +C61 +C81 +C101 +C121 +C141 +C161 +C181 +C201 +C221 +C241 +C261 +C281 +C301 +C321
 +C341 +C361 +C381 +C401 <= 0;
-10000000 C2 +C22 +C42 +C62 +C82 +C102 +C122 +C142 +C162 +C182 +C202 +C222 +C242 +C262 +C282 +C302 +C322
 +C342 +C362 +C382 +C402 <= 0;
-10000000 C3 +C23 +C43 +C63 +C83 +C103 +C123 +C143 +C163 +C183 +C203 +C223 +C243 +C263 +C283 +C303 +C323
 +C343 +C363 +C383 +C403 <= 0;
-10000000 C4 +C24 +C44 +C64 +C84 +C104 +C124 +C144 +C164 +C184 +C204 +C224 +C244 +C264 +C284 +C304 +C324
 +C344 +C364 +C384 +C404 <= 0;
-10000000 C5 +C25 +C45 +C65 +C85 +C105 +C125 +C145 +C165 +C185 +C205 +C225 +C245 +C265 +C285 +C305 +C325
 +C345 +C365 +C385 +C405 <= 0;
-10000000 C6 +C26 +C46 +C66 +C86 +C106 +C126 +C146 +C166 +C186 +C206 +C226 +C246 +C266 +C286 +C306 +C326
 +C346 +C366 +C386 +C406 <= 0;
-10000000 C7 +C27 +C47 +C67 +C87 +C107 +C127 +C147 +C167 +C187 +C207 +C227 +C247 +C267 +C287 +C307 +C327
 +C347 +C367 +C387 +C407 <= 0;
-10000000 C8 +C28 +C48 +C68 +C88 +C108 +C128 +C148 +C168 +C188 +C208 +C228 +C248 +C268 +C288 +C308 +C328
 +C348 +C368 +C388 +C408 <= 0;
-10000000 C9 +C29 +C49 +C69 +C89 +C109 +C129 +C149 +C169 +C189 +C209 +C229 +C249 +C269 +C289 +C309 +C329
 +C349 +C369 +C389 +C409 <= 0;
-10000000 C10 +C30 +C50 +C70 +C90 +C110 +C130 +C150 +C170 +C190 +C210 +C230 +C250 +C270 +C290 +C310 +C330
 +C350 +C370 +C390 +C410 <= 0;
-10000000 C11 +C31 +C51 +C71 +C91 +C111 +C131 +C151 +C171 +C191 +C211 +C231 +C251 +C271 +C291 +C311 +C331
 +C351 +C371 +C391 +C411 <= 0;
-10000000 C12 +C32 +C52 +C72 +C92 +C112 +C132 +C152 +C172 +C192 +C212 +C232 +C252 +C272 +C292 +C312 +C332
 +C352 +C372 +C392 +C412 <= 0;
-10000000 C13 +C33 +C53 +C73 +C93 +C113 +C133 +C153 +C173 +C193 +C213 +C233 +C253 +C273 +C293 +C313 +C333
 +C353 +C373 +C393 +C413 <= 0;
-10000000 C14 +C34 +C54 +C74 +C94 +C114 +C134 +C154 +C174 +C194 +C214 +C234 +C254 +C274 +C294 +C314 +C334
 +C354 +C374 +C394 +C414 <= 0;
-10000000 C15 +C35 +C55 +C75 +C95 +C115 +C135 +C155 +C175 +C195 +C215 +C235 +C255 +C275 +C295 +C315 +C335
 +C355 +C375 +C395 +C415 <= 0;
-10000000 C16 +C36 +C56 +C76 +C96 +C116 +C136 +C156 +C176 +C196 +C216 +C236 +C256 +C276 +C296 +C316 +C336
 +C356 +C376 +C396 +C416 <= 0;
-10000000 C17 +C37 +C57 +C77 +C97 +C117 +C137 +C157 +C177 +C197 +C217 +C237 +C257 +C277 +C297 +C317 +C337
 +C357 +C377 +C397 +C417 <= 0;
-10000000 C18 +C38 +C58 +C78 +C98 +C118 +C138 +C158 +C178 +C198 +C218 +C238 +C258 +C278 +C298 +C318 +C338
 +C358 +C378 +C398 +C418 <= 0;
-10000000 C19 +C39 +C59 +C79 +C99 +C119 +C139 +C159 +C179 +C199 +C219 +C239 +C259 +C279 +C299 +C319 +C339
 +C359 +C379 +C399 +C419 <= 0;
-10000000 C20 +C40 +C60 +C80 +C100 +C120 +C140 +C160 +C180 +C200 +C220 +C240 +C260 +C280 +C300 +C320
 +C340 +C360 +C380 +C400 +C420 <= 0;
+5 C21 +6 C41 +3 C61 +8 C81 +9 C101 +4 C121 +3 C141 +5 C161 +13 C181 +4 C201 +12 C221 +2 C241 +4 C261
 +8 C281 +9 C301 +C321 +2 C341 +3 C361 +4 C381 +3 C401 <= 40;
+4 C21 +2 C41 +4 C61 +7 C81 +10 C101 +5 C121 +7 C141 +7 C161 +2 C181 +5 C201 +12 C221 +3 C241 +9 C261
 +8 C281 +2 C301 +2 C321 +3 C341 +3 C361 +2 C381 +4 C401 <= 38;
+5 C22 +6 C42 +3 C62 +8 C82 +9 C102 +4 C122 +3 C142 +5 C162 +13 C182 +4 C202 +12 C222 +2 C242 +4 C262
 +8 C282 +9 C302 +C322 +2 C342 +3 C362 +4 C382 +3 C402 <= 40;
+4 C22 +2 C42 +4 C62 +7 C82 +10 C102 +5 C122 +7 C142 +7 C162 +2 C182 +5 C202 +12 C222 +3 C242 +9 C262
 +8 C282 +2 C302 +2 C322 +3 C342 +3 C362 +2 C382 +4 C402 <= 38;
+5 C23 +6 C43 +3 C63 +8 C83 +9 C103 +4 C123 +3 C143 +5 C163 +13 C183 +4 C203 +12 C223 +2 C243 +4 C263
 +8 C283 +9 C303 +C323 +2 C343 +3 C363 +4 C383 +3 C403 <= 40;
+4 C23 +2 C43 +4 C63 +7 C83 +10 C103 +5 C123 +7 C143 +7 C163 +2 C183 +5 C203 +12 C223 +3 C243 +9 C263
 +8 C283 +2 C303 +2 C323 +3 C343 +3 C363 +2 C383 +4 C403 <= 38;
+5 C24 +6 C44 +3 C64 +8 C84 +9 C104 +4 C124 +3 C144 +5 C164 +13 C184 +4 C204 +12 C224 +2 C244 +4 C264
 +8 C284 +9 C304 +C324 +2 C344 +3 C364 +4 C384 +3 C404 <= 40;
+4 C24 +2 C44 +4 C64 +7 C84 +10 C104 +5 C124 +7 C144 +7 C164 +2 C184 +5 C204 +12 C224 +3 C244 +9 C264
 +8 C284 +2 C304 +2 C324 +3 C344 +3 C364 +2 C384 +4 C404 <= 38;
+5 C25 +6 C45 +3 C65 +8 C85 +9 C105 +4 C125 +3 C145 +5 C165 +13 C185 +4 C205 +12 C225 +2 C245 +4 C265
 +8 C285 +9 C305 +C325 +2 C345 +3 C365 +4 C385 +3 C405 <= 40;
+4 C25 +2 C45 +4 C65 +7 C85 +10 C105 +5 C125 +7 C145 +7 C165 +2 C185 +5 C205 +12 C225 +3 C245 +9 C265
 +8 C285 +2 C305 +2 C325 +3 C345 +3 C365 +2 C385 +4 C405 <= 38;
+5 C26 +6 C46 +3 C66 +8 C86 +9 C106 +4 C126 +3 C146 +5 C166 +13 C186 +4 C206 +12 C226 +2 C246 +4 C266
 +8 C286 +9 C306 +C326 +2 C346 +3 C366 +4 C386 +3 C406 <= 40;
+4 C26 +2 C46 +4 C66 +7 C86 +10 C106 +5 C126 +7 C146 +7 C166 +2 C186 +5 C206 +12 C226 +3 C246 +9 C266
 +8 C286 +2 C306 +2 C326 +3 C346 +3 C366 +2 C386 +4 C406 <= 38;
+5 C27 +6 C47 +3 C67 +8 C87 +9 C107 +4 C127 +3 C147 +5 C167 +13 C187 +4 C207 +12 C227 +2 C247 +4 C267
 +8 C287 +9 C307 +C327 +2 C347 +3 C367 +4 C387 +3 C407 <= 40;
+4 C27 +2 C47 +4 C67 +7 C87 +10 C107 +5 C127 +7 C147 +7 C167 +2 C187 +5 C207 +12 C227 +3 C247 +9 C267
 +8 C287 +2 C307 +2 C327 +3 C347 +3 C367 +2 C387 +4 C407 <= 38;
+5 C28 +6 C48 +3 C68 +8 C88 +9 C108 +4 C128 +3 C148 +5 C168 +13 C188 +4 C208 +12 C228 +2 C248 +4 C268
 +8 C288 +9 C308 +C328 +2 C348 +3 C368 +4 C388 +3 C408 <= 40;
+4 C28 +2 C48 +4 C68 +7 C88 +10 C108 +5 C128 +7 C148 +7 C168 +2 C188 +5 C208 +12 C228 +3 C248 +9 C268
 +8 C288 +2 C308 +2 C328 +3 C348 +3 C368 +2 C388 +4 C408 <= 38;
+5 C29 +6 C49 +3 C69 +8 C89 +9 C109 +4 C129 +3 C149 +5 C169 +13 C189 +4 C209 +12 C229 +2 C249 +4 C269
 +8 C289 +9 C309 +C329 +2 C349 +3 C369 +4 C389 +3 C409 <= 40;
+4 C29 +2 C49 +4 C69 +7 C89 +10 C109 +5 C129 +7 C149 +7 C169 +2 C189 +5 C209 +12 C229 +3 C249 +9 C269
 +8 C289 +2 C309 +2 C329 +3 C349 +3 C369 +2 C389 +4 C409 <= 38;
+5 C30 +6 C50 +3 C70 +8 C90 +9 C110 +4 C130 +3 C150 +5 C170 +13 C190 +4 C210 +12 C230 +2 C250 +4 C270
 +8 C290 +9 C310 +C330 +2 C350 +3 C370 +4 C390 +3 C410 <= 40;
+4 C30 +2 C50 +4 C70 +7 C90 +10 C110 +5 C130 +7 C150 +7 C170 +2 C190 +5 C210 +12 C230 +3 C250 +9 C270
 +8 C290 +2 C310 +2 C330 +3 C350 +3 C370 +2 C390 +4 C410 <= 38;
+5 C31 +6 C51 +3 C71 +8 C91 +9 C111 +4 C131 +3 C151 +5 C171 +13 C191 +4 C211 +12 C231 +2 C251 +4 C271
 +8 C291 +9 C311 +C331 +2 C351 +3 C371 +4 C391 +3 C411 <= 40;
+4 C31 +2 C51 +4 C71 +7 C91 +10 C111 +5 C131 +7 C151 +7 C171 +2 C191 +5 C211 +12 C231 +3 C251 +9 C271
 +8 C291 +2 C311 +2 C331 +3 C351 +3 C371 +2 C391 +4 C411 <= 38;
+5 C32 +6 C52 +3 C72 +8 C92 +9 C112 +4 C132 +3 C152 +5 C172 +13 C192 +4 C212 +12 C232 +2 C252 +4 C272
 +8 C292 +9 C312 +C332 +2 C352 +3 C372 +4 C392 +3 C412 <= 40;
+4 C32 +2 C52 +4 C72 +7 C92 +10 C112 +5 C132 +7 C152 +7 C172 +2 C192 +5 C212 +12 C232 +3 C252 +9 C272
 +8 C292 +2 C312 +2 C332 +3 C352 +3 C372 +2 C392 +4 C412 <= 38;
+5 C33 +6 C53 +3 C73 +8 C93 +9 C113 +4 C133 +3 C153 +5 C173 +13 C193 +4 C213 +12 C233 +2 C253 +4 C273
 +8 C293 +9 C313 +C333 +2 C353 +3 C373 +4 C393 +3 C413 <= 40;
+4 C33 +2 C53 +4 C73 +7 C93 +10 C113 +5 C133 +7 C153 +7 C173 +2 C193 +5 C213 +12 C233 +3 C253 +9 C273
 +8 C293 +2 C313 +2 C333 +3 C353 +3 C373 +2 C393 +4 C413 <= 38;
+5 C34 +6 C54 +3 C74 +8 C94 +9 C114 +4 C134 +3 C154 +5 C174 +13 C194 +4 C214 +12 C234 +2 C254 +4 C274
 +8 C294 +9 C314 +C334 +2 C354 +3 C374 +4 C394 +3 C414 <= 40;
+4 C34 +2 C54 +4 C74 +7 C94 +10 C114 +5 C134 +7 C154 +7 C174 +2 C194 +5 C214 +12 C234 +3 C254 +9 C274
 +8 C294 +2 C314 +2 C334 +3 C354 +3 C374 +2 C394 +4 C414 <= 38;
+5 C35 +6 C55 +3 C75 +8 C95 +9 C115 +4 C135 +3 C155 +5 C175 +13 C195 +4 C215 +12 C235 +2 C255 +4 C275
 +8 C295 +9 C315 +C335 +2 C355 +3 C375 +4 C395 +3 C415 <= 40;
+4 C35 +2 C55 +4 C75 +7 C95 +10 C115 +5 C135 +7 C155 +7 C175 +2 C195 +5 C215 +12 C235 +3 C255 +9 C275
 +8 C295 +2 C315 +2 C335 +3 C355 +3 C375 +2 C395 +4 C415 <= 38;
+5 C36 +6 C56 +3 C76 +8 C96 +9 C116 +4 C136 +3 C156 +5 C176 +13 C196 +4 C216 +12 C236 +2 C256 +4 C276
 +8 C296 +9 C316 +C336 +2 C356 +3 C376 +4 C396 +3 C416 <= 40;
+4 C36 +2 C56 +4 C76 +7 C96 +10 C116 +5 C136 +7 C156 +7 C176 +2 C196 +5 C216 +12 C236 +3 C256 +9 C276
 +8 C296 +2 C316 +2 C336 +3 C356 +3 C376 +2 C396 +4 C416 <= 38;
+5 C37 +6 C57 +3 C77 +8 C97 +9 C117 +4 C137 +3 C157 +5 C177 +13 C197 +4 C217 +12 C237 +2 C257 +4 C277
 +8 C297 +9 C317 +C337 +2 C357 +3 C377 +4 C397 +3 C417 <= 40;
+4 C37 +2 C57 +4 C77 +7 C97 +10 C117 +5 C137 +7 C157 +7 C177 +2 C197 +5 C217 +12 C237 +3 C257 +9 C277
 +8 C297 +2 C317 +2 C337 +3 C357 +3 C377 +2 C397 +4 C417 <= 38;
+5 C38 +6 C58 +3 C78 +8 C98 +9 C118 +4 C138 +3 C158 +5 C178 +13 C198 +4 C218 +12 C238 +2 C258 +4 C278
 +8 C298 +9 C318 +C338 +2 C358 +3 C378 +4 C398 +3 C418 <= 40;
+4 C38 +2 C58 +4 C78 +7 C98 +10 C118 +5 C138 +7 C158 +7 C178 +2 C198 +5 C218 +12 C238 +3 C258 +9 C278
 +8 C298 +2 C318 +2 C338 +3 C358 +3 C378 +2 C398 +4 C418 <= 38;
+5 C39 +6 C59 +3 C79 +8 C99 +9 C119 +4 C139 +3 C159 +5 C179 +13 C199 +4 C219 +12 C239 +2 C259 +4 C279
 +8 C299 +9 C319 +C339 +2 C359 +3 C379 +4 C399 +3 C419 <= 40;
+4 C39 +2 C59 +4 C79 +7 C99 +10 C119 +5 C139 +7 C159 +7 C179 +2 C199 +5 C219 +12 C239 +3 C259 +9 C279
 +8 C299 +2 C319 +2 C339 +3 C359 +3 C379 +2 C399 +4 C419 <= 38;
+5 C40 +6 C60 +3 C80 +8 C100 +9 C120 +4 C140 +3 C160 +5 C180 +13 C200 +4 C220 +12 C240 +2 C260 +4 C280
 +8 C300 +9 C320 +C340 +2 C360 +3 C380 +4 C400 +3 C420 <= 40;
+4 C40 +2 C60 +4 C80 +7 C100 +10 C120 +5 C140 +7 C160 +7 C180 +2 C200 +5 C220 +12 C240 +3 C260 +9 C280
 +8 C300 +2 C320 +2 C340 +3 C360 +3 C380 +2 C400 +4 C420 <= 38;

/* Variable bounds */
C1 <= 1;
C2 <= 1;
C3 <= 1;
C4 <= 1;
C5 <= 1;
C6 <= 1;
C7 <= 1;
C8 <= 1;
C9 <= 1;
C10 <= 1;
C11 <= 1;
C12 <= 1;
C13 <= 1;
C14 <= 1;
C15 <= 1;
C16 <= 1;
C17 <= 1;
C18 <= 1;
C19 <= 1;
C20 <= 1;
C21 <= 1;
C22 <= 1;
C23 <= 1;
C24 <= 1;
C25 <= 1;
C26 <= 1;
C27 <= 1;
C28 <= 1;
C29 <= 1;
C30 <= 1;
C31 <= 1;
C32 <= 1;
C33 <= 1;
C34 <= 1;
C35 <= 1;
C36 <= 1;
C37 <= 1;
C38 <= 1;
C39 <= 1;
C40 <= 1;
C41 <= 1;
C42 <= 1;
C43 <= 1;
C44 <= 1;
C45 <= 1;
C46 <= 1;
C47 <= 1;
C48 <= 1;
C49 <= 1;
C50 <= 1;
C51 <= 1;
C52 <= 1;
C53 <= 1;
C54 <= 1;
C55 <= 1;
C56 <= 1;
C57 <= 1;
C58 <= 1;
C59 <= 1;
C60 <= 1;
C61 <= 1;
C62 <= 1;
C63 <= 1;
C64 <= 1;
C65 <= 1;
C66 <= 1;
C67 <= 1;
C68 <= 1;
C69 <= 1;
C70 <= 1;
C71 <= 1;
C72 <= 1;
C73 <= 1;
C74 <= 1;
C75 <= 1;
C76 <= 1;
C77 <= 1;
C78 <= 1;
C79 <= 1;
C80 <= 1;
C81 <= 1;
C82 <= 1;
C83 <= 1;
C84 <= 1;
C85 <= 1;
C86 <= 1;
C87 <= 1;
C88 <= 1;
C89 <= 1;
C90 <= 1;
C91 <= 1;
C92 <= 1;
C93 <= 1;
C94 <= 1;
C95 <= 1;
C96 <= 1;
C97 <= 1;
C98 <= 1;
C99 <= 1;
C100 <= 1;
C101 <= 1;
C102 <= 1;
C103 <= 1;
C104 <= 1;
C105 <= 1;
C106 <= 1;
C107 <= 1;
C108 <= 1;
C109 <= 1;
C110 <= 1;
C111 <= 1;
C112 <= 1;
C113 <= 1;
C114 <= 1;
C115 <= 1;
C116 <= 1;
C117 <= 1;
C118 <= 1;
C119 <= 1;
C120 <= 1;
C121 <= 1;
C122 <= 1;
C123 <= 1;
C124 <= 1;
C125 <= 1;
C126 <= 1;
C127 <= 1;
C128 <= 1;
C129 <= 1;
C130 <= 1;
C131 <= 1;
C132 <= 1;
C133 <= 1;
C134 <= 1;
C135 <= 1;
C136 <= 1;
C137 <= 1;
C138 <= 1;
C139 <= 1;
C140 <= 1;
C141 <= 1;
C142 <= 1;
C143 <= 1;
C144 <= 1;
C145 <= 1;
C146 <= 1;
C147 <= 1;
C148 <= 1;
C149 <= 1;
C150 <= 1;
C151 <= 1;
C152 <= 1;
C153 <= 1;
C154 <= 1;
C155 <= 1;
C156 <= 1;
C157 <= 1;
C158 <= 1;
C159 <= 1;
C160 <= 1;
C161 <= 1;
C162 <= 1;
C163 <= 1;
C164 <= 1;
C165 <= 1;
C166 <= 1;
C167 <= 1;
C168 <= 1;
C169 <= 1;
C170 <= 1;
C171 <= 1;
C172 <= 1;
C173 <= 1;
C174 <= 1;
C175 <= 1;
C176 <= 1;
C177 <= 1;
C178 <= 1;
C179 <= 1;
C180 <= 1;
C181 <= 1;
C182 <= 1;
C183 <= 1;
C184 <= 1;
C185 <= 1;
C186 <= 1;
C187 <= 1;
C188 <= 1;
C189 <= 1;
C190 <= 1;
C191 <= 1;
C192 <= 1;
C193 <= 1;
C194 <= 1;
C195 <= 1;
C196 <= 1;
C197 <= 1;
C198 <= 1;
C199 <= 1;
C200 <= 1;
C201 <= 1;
C202 <= 1;
C203 <= 1;
C204 <= 1;
C205 <= 1;
C206 <= 1;
C207 <= 1;
C208 <= 1;
C209 <= 1;
C210 <= 1;
C211 <= 1;
C212 <= 1;
C213 <= 1;
C214 <= 1;
C215 <= 1;
C216 <= 1;
C217 <= 1;
C218 <= 1;
C219 <= 1;
C220 <= 1;
C221 <= 1;
C222 <= 1;
C223 <= 1;
C224 <= 1;
C225 <= 1;
C226 <= 1;
C227 <= 1;
C228 <= 1;
C229 <= 1;
C230 <= 1;
C231 <= 1;
C232 <= 1;
C233 <= 1;
C234 <= 1;
C235 <= 1;
C236 <= 1;
C237 <= 1;
C238 <= 1;
C239 <= 1;
C240 <= 1;
C241 <= 1;
C242 <= 1;
C243 <= 1;
C244 <= 1;
C245 <= 1;
C246 <= 1;
C247 <= 1;
C248 <= 1;
C249 <= 1;
C250 <= 1;
C251 <= 1;
C252 <= 1;
C253 <= 1;
C254 <= 1;
C255 <= 1;
C256 <= 1;
C257 <= 1;
C258 <= 1;
C259 <= 1;
C260 <= 1;
C261 <= 1;
C262 <= 1;
C263 <= 1;
C264 <= 1;
C265 <= 1;
C266 <= 1;
C267 <= 1;
C268 <= 1;
C269 <= 1;
C270 <= 1;
C271 <= 1;
C272 <= 1;
C273 <= 1;
C274 <= 1;
C275 <= 1;
C276 <= 1;
C277 <= 1;
C278 <= 1;
C279 <= 1;
C280 <= 1;
C281 <= 1;
C282 <= 1;
C283 <= 1;
C284 <= 1;
C285 <= 1;
C286 <= 1;
C287 <= 1;
C288 <= 1;
C289 <= 1;
C290 <= 1;
C291 <= 1;
C292 <= 1;
C293 <= 1;
C294 <= 1;
C295 <= 1;
C296 <= 1;
C297 <= 1;
C298 <= 1;
C299 <= 1;
C300 <= 1;
C301 <= 1;
C302 <= 1;
C303 <= 1;
C304 <= 1;
C305 <= 1;
C306 <= 1;
C307 <= 1;
C308 <= 1;
C309 <= 1;
C310 <= 1;
C311 <= 1;
C312 <= 1;
C313 <= 1;
C314 <= 1;
C315 <= 1;
C316 <= 1;
C317 <= 1;
C318 <= 1;
C319 <= 1;
C320 <= 1;
C321 <= 1;
C322 <= 1;
C323 <= 1;
C324 <= 1;
C325 <= 1;
C326 <= 1;
C327 <= 1;
C328 <= 1;
C329 <= 1;
C330 <= 1;
C331 <= 1;
C332 <= 1;
C333 <= 1;
C334 <= 1;
C335 <= 1;
C336 <= 1;
C337 <= 1;
C338 <= 1;
C339 <= 1;
C340 <= 1;
C341 <= 1;
C342 <= 1;
C343 <= 1;
C344 <= 1;
C345 <= 1;
C346 <= 1;
C347 <= 1;
C348 <= 1;
C349 <= 1;
C350 <= 1;
C351 <= 1;
C352 <= 1;
C353 <= 1;
C354 <= 1;
C355 <= 1;
C356 <= 1;
C357 <= 1;
C358 <= 1;
C359 <= 1;
C360 <= 1;
C361 <= 1;
C362 <= 1;
C363 <= 1;
C364 <= 1;
C365 <= 1;
C366 <= 1;
C367 <= 1;
C368 <= 1;
C369 <= 1;
C370 <= 1;
C371 <= 1;
C372 <= 1;
C373 <= 1;
C374 <= 1;
C375 <= 1;
C376 <= 1;
C377 <= 1;
C378 <= 1;
C379 <= 1;
C380 <= 1;
C381 <= 1;
C382 <= 1;
C383 <= 1;
C384 <= 1;
C385 <= 1;
C386 <= 1;
C387 <= 1;
C388 <= 1;
C389 <= 1;
C390 <= 1;
C391 <= 1;
C392 <= 1;
C393 <= 1;
C394 <= 1;
C395 <= 1;
C396 <= 1;
C397 <= 1;
C398 <= 1;
C399 <= 1;
C400 <= 1;
C401 <= 1;
C402 <= 1;
C403 <= 1;
C404 <= 1;
C405 <= 1;
C406 <= 1;
C407 <= 1;
C408 <= 1;
C409 <= 1;
C410 <= 1;
C411 <= 1;
C412 <= 1;
C413 <= 1;
C414 <= 1;
C415 <= 1;
C416 <= 1;
C417 <= 1;
C418 <= 1;
C419 <= 1;
C420 <= 1;

/* Integer definitions */
int C1,C2,C3,C4,C5,C6,C7,C8,C9,C10,C11,C12,C13,C14,C15,C16,C17,C18,C19,C20,C21,C22,C23,C24,C25,C26,C27,C28,C29,C30,C31,C32,C33,C34,C35,C36,C37,C38,C39,C40,C41,C42,C43,C44,C45,C46,C47,C48,C49,C50,C51,C52,C53,C54,C55,C56,C57,C58,C59,C60,C61,C62,C63,C64,C65,C66,C67,C68,C69,C70,C71,C72,C73,C74,C75,C76,C77,C78,C79,C80,C81,C82,C83,C84,C85,C86,C87,C88,C89,C90,C91,C92,C93,C94,C95,C96,C97,C98,C99,C100,C101,C102,C103,C104,C105,C106,C107,C108,C109,C110,C111,C112,C113,C114,C115,C116,C117,C118,C119,C120,C121,C122,C123,C124,C125,C126,C127,C128,C129,C130,C131,C132,C133,C134,C135,C136,C137,C138,C139,C140,C141,C142,C143,C144,C145,C146,C147,C148,C149,C150,C151,C152,C153,C154,C155,C156,C157,C158,C159,C160,C161,C162,C163,C164,C165,C166,C167,C168,C169,C170,C171,C172,C173,C174,C175,C176,C177,C178,C179,C180,C181,C182,C183,C184,C185,C186,C187,C188,C189,C190,C191,C192,C193,C194,C195,C196,C197,C198,C199,C200,C201,C202,C203,C204,C205,C206,C207,C208,C209,C210,C211,C212,C213,C214,C215,C216,C217,C218,C219,C220,C221,C222,C223,C224,C225,C226,C227,C228,C229,C230,C231,C232,C233,C234,C235,C236,C237,C238,C239,C240,C241,C242,C243,C244,C245,C246,C247,C248,C249,C250,C251,C252,C253,C254,C255,C256,C257,C258,C259,C260,C261,C262,C263,C264,C265,C266,C267,C268,C269,C270,C271,C272,C273,C274,C275,C276,C277,C278,C279,C280,C281,C282,C283,C284,C285,C286,C287,C288,C289,C290,C291,C292,C293,C294,C295,C296,C297,C298,C299,C300,C301,C302,C303,C304,C305,C306,C307,C308,C309,C310,C311,C312,C313,C314,C315,C316,C317,C318,C319,C320,C321,C322,C323,C324,C325,C326,C327,C328,C329,C330,C331,C332,C333,C334,C335,C336,C337,C338,C339,C340,C341,C342,C343,C344,C345,C346,C347,C348,C349,C350,C351,C352,C353,C354,C355,C356,C357,C358,C359,C360,C361,C362,C363,C364,C365,C366,C367,C368,C369,C370,C371,C372,C373,C374,C375,C376,C377,C378,C379,C380,C381,C382,C383,C384,C385,C386,C387,C388,C389,C390,C391,C392,C393,C394,C395,C396,C397,C398,C399,C400,C401,C402,C403,C404,C405,C406,C407,C408,C409,C410,C411,C412,C413,C414,C415,C416,C417,C418,C419,C420;
